8
Coordinates from ORCA-job cu_his3_resting E -4544.737242629020
  Cu      0.000000      0.000000      0.000000
  N       2.050000      0.000000      0.000000
  N      -1.025000      1.776000      0.000000
  N      -1.025000     -1.776000      0.000000
  C       4.500000      0.000000      0.000000
  Br      5.900000      0.000000      0.000000
  N       3.000000      2.500000      0.000000
  O       3.000000      3.800000      0.000000
8
Coordinates from ORCA-job cu_his3_resting E -4544.866316810630
  Cu     -0.000565      0.012771      0.000000
  N       2.025797      0.021858      0.000000
  N      -0.991025      1.766891      0.000000
  N      -1.019221     -1.729083     -0.000000
  C       4.470522      0.010873      0.000000
  Br      5.988047     -0.002860     -0.000000
  N       2.979850      2.502967     -0.000000
  O       2.946595      3.716582     -0.000000
8
Coordinates from ORCA-job cu_his3_resting E -4544.934909652412
  Cu      0.009146      0.026243      0.000001
  N       2.001893      0.049948     -0.000001
  N      -0.932093      1.740419      0.000001
  N      -1.000085     -1.662586     -0.000001
  C       4.438312      0.020366     -0.000000
  Br      6.049752     -0.015558      0.000001
  N       2.956914      2.506958     -0.000000
  O       2.876160      3.634211     -0.000000
8
Coordinates from ORCA-job cu_his3_resting E -4544.995311086376
  Cu      0.049743      0.054787      0.000000
  N       1.982590      0.098261     -0.000001
  N      -0.804234      1.682990      0.000001
  N      -0.937856     -1.531973     -0.000000
  C       4.379517      0.012693     -0.000001
  Br      6.104119     -0.065771      0.000002
  N       2.912743      2.479741     -0.000001
  O       2.713378      3.569272     -0.000000
8
Coordinates from ORCA-job cu_his3_resting E -4545.050098438661
  Cu      0.135601      0.118592      0.000001
  N       1.989924      0.159542     -0.000002
  N      -0.598210      1.629647      0.000002
  N      -0.815026     -1.316439     -0.000000
  C       4.296697     -0.013809     -0.000002
  Br      6.144926     -0.135124      0.000003
  N       2.831579      2.407612     -0.000001
  O       2.414508      3.449979     -0.000000
8
Coordinates from ORCA-job cu_his3_resting E -4545.075488645362
  Cu      0.319754      0.243110     -0.000001
  N       2.096456      0.231161     -0.000002
  N      -0.258395      1.660836      0.000000
  N      -0.598382     -1.014614      0.000002
  C       4.118816     -0.016916     -0.000003
  Br      6.085887     -0.172264      0.000003
  N       2.651732      2.222404     -0.000000
  O       1.984132      3.146284      0.000001
8
Coordinates from ORCA-job cu_his3_resting E -4545.107708325811
  Cu      0.370334      0.274361      0.000865
  N       2.173131      0.298843     -0.003532
  N      -0.273281      1.742542      0.005366
  N      -0.540973     -1.061327      0.000779
  C       4.061001      0.012551     -0.010854
  Br      5.993466     -0.171867      0.009812
  N       2.645992      2.147866     -0.001789
  O       1.970330      3.057031     -0.000647
8
Coordinates from ORCA-job cu_his3_resting E -4545.136149071877
  Cu      0.413464      0.270555      0.003790
  N       2.246790      0.390535     -0.018949
  N      -0.316881      1.749215      0.019183
  N      -0.438411     -1.153301      0.002083
  C       3.974612      0.102033     -0.023941
  Br      5.857160     -0.279879      0.027768
  N       2.665968      2.153032     -0.007154
  O       1.997298      3.067810     -0.002780
8
Coordinates from ORCA-job cu_his3_resting E -4545.185069015665
  Cu      0.462844      0.235783      0.004845
  N       2.306127      0.462253     -0.020959
  N      -0.353089      1.688857      0.021224
  N      -0.311773     -1.247416      0.003977
  C       3.928107      0.229266     -0.024139
  Br      5.692308     -0.502604      0.029914
  N       2.667650      2.258746     -0.009034
  O       2.007826      3.175115     -0.005828
8
Coordinates from ORCA-job cu_his3_resting E -4545.221886176356
  Cu      0.506120      0.213957      0.005235
  N       2.351460      0.506139     -0.019759
  N      -0.363203      1.645018      0.020016
  N      -0.218010     -1.298076      0.005343
  C       3.889213      0.293330     -0.021157
  Br      5.552898     -0.625829      0.027524
  N       2.665978      2.322655     -0.009341
  O       2.015544      3.242806     -0.007861
8
Coordinates from ORCA-job cu_his3_resting E -4545.259414494269
  Cu      0.551954      0.192689      0.005563
  N       2.397047      0.543608     -0.018334
  N      -0.365827      1.601049      0.018599
  N      -0.125378     -1.342636      0.006644
  C       3.844940      0.345021     -0.018209
  Br      5.404017     -0.726480      0.024886
  N       2.665571      2.379974     -0.009510
  O       2.027675      3.306775     -0.009639
8
Coordinates from ORCA-job cu_his3_resting E -4545.309725184639
  Cu      0.622997      0.160184      0.006023
  N       2.466755      0.592139     -0.015885
  N      -0.361319      1.529769      0.016218
  N       0.013148     -1.399477      0.008584
  C       3.775620      0.407570     -0.013940
  Br      5.166025     -0.852497      0.020683
  N       2.666196      2.461394     -0.009634
  O       2.050579      3.400917     -0.012048
8
Coordinates from ORCA-job cu_his3_resting E -4545.329691738164
  Cu      0.708456      0.101977      0.006536
  N       2.557676      0.632098     -0.012452
  N      -0.365375      1.419894      0.012681
  N       0.185034     -1.486794      0.011688
  C       3.702272      0.473492     -0.008402
  Br      4.829755     -0.996601      0.014772
  N       2.677123      2.595113     -0.010051
  O       2.105059      3.560822     -0.014771
8
Coordinates from ORCA-job cu_his3_resting E -4545.337879903655
  Cu      0.696121      0.084121      0.005903
  N       2.562215      0.605521     -0.012286
  N      -0.371033      1.438350      0.012291
  N       0.141210     -1.504135      0.012525
  C       3.769910      0.425965     -0.007569
  Br      4.900811     -1.113217      0.014396
  N       2.730193      2.720680     -0.009014
  O       1.970573      3.642714     -0.016246
8
Coordinates from ORCA-job cu_his3_resting E -4545.347428813339
  Cu      0.648664      0.085437      0.005894
  N       2.521997      0.634874     -0.016792
  N      -0.439667      1.428504      0.013336
  N       0.127869     -1.522908      0.013014
  C       3.712722      0.356015     -0.011164
  Br      5.016323     -1.071415      0.018757
  N       2.762913      2.780839     -0.009789
  O       2.049178      3.608654     -0.013256
8
Coordinates from ORCA-job cu_his3_resting E -4545.365144671695
  Cu      0.703532      0.172495      0.006124
  N       2.572954      0.533966     -0.015185
  N      -0.144625      1.599927      0.006723
  N       0.006220     -1.285878      0.013699
  C       3.733649      0.253762     -0.011541
  Br      5.128492     -0.913070      0.016011
  N       2.647413      2.627721     -0.007062
  O       1.752365      3.311078     -0.008770
8
Coordinates from ORCA-job cu_his3_resting E -4545.375894765002
  Cu      0.736094      0.266812      0.003365
  N       2.643123      0.514270     -0.017996
  N      -0.043663      1.767146      0.006936
  N      -0.057499     -1.174835      0.014407
  C       3.716242      0.147409     -0.011829
  Br      5.233034     -0.821639      0.016762
  N       2.636818      2.594396     -0.004961
  O       1.535851      3.006443     -0.006685
8
Coordinates from ORCA-job cu_his3_resting E -4545.384035519918
  Cu      0.709589      0.198953      0.003731
  N       2.667049      0.559146     -0.019402
  N      -0.187631      1.669893      0.008916
  N      -0.017625     -1.306185      0.015273
  C       3.746204      0.154020     -0.012307
  Br      5.127656     -0.922413      0.018375
  N       2.722315      2.774684     -0.007413
  O       1.632444      3.171901     -0.007173
8
Coordinates from ORCA-job cu_his3_resting E -4538.279290477033
  Cu      0.565128      0.364379     -0.005675
  N       2.524925      0.193590     -0.002337
  N       0.885146      1.814929     -0.015023
  N      -0.702755     -0.364265      0.017079
  C       4.082008     -0.196445      0.012982
  Br      5.849368     -0.384381     -0.013149
  N       1.912366      2.762470     -0.001179
  O       1.283812      2.109723      0.007301
8
Coordinates from ORCA-job cu_his3_resting E -4544.671450841496
  Cu      0.487347      0.252917     -0.005704
  N       2.493686      0.315854     -0.010720
  N       0.455889      1.698753     -0.020714
  N      -0.632055     -0.689605      0.020604
  C       4.037406     -0.184593      0.011241
  Br      5.788472     -0.492974     -0.007050
  N       2.210811      2.977160      0.002305
  O       1.558443      2.422488      0.010037
8
Coordinates from ORCA-job cu_his3_resting E -4545.055906829145
  Cu      0.497170      0.230986     -0.005761
  N       2.515396      0.378620     -0.014296
  N       0.334057      1.721975     -0.025958
  N      -0.601155     -0.809889      0.023792
  C       4.005427     -0.171934      0.011658
  Br      5.749461     -0.543232     -0.005709
  N       2.344838      3.065392      0.003591
  O       1.554806      2.428082      0.012683
8
Coordinates from ORCA-job cu_his3_resting E -4545.182796126743
  Cu      0.533994      0.192879     -0.006021
  N       2.555199      0.392017     -0.016828
  N       0.299161      1.762825     -0.035413
  N      -0.573763     -0.938737      0.028298
  C       3.943959     -0.170019      0.012394
  Br      5.684393     -0.580547     -0.006082
  N       2.412465      3.116597      0.004393
  O       1.544593      2.524985      0.019259
8
Coordinates from ORCA-job cu_his3_resting E -4545.283851690830
  Cu      0.581921      0.155987     -0.003858
  N       2.602195      0.408934     -0.018341
  N       0.289141      1.769771     -0.052287
  N      -0.520545     -1.037320      0.033361
  C       3.855979     -0.156212      0.012158
  Br      5.578215     -0.609174     -0.007518
  N       2.475964      3.170199      0.004870
  O       1.537129      2.597814      0.031615
8
Coordinates from ORCA-job cu_his3_resting E -4545.368685593157
  Cu      0.639995      0.111828      0.007320
  N       2.663941      0.413570     -0.020827
  N       0.279750      1.773384     -0.131005
  N      -0.455771     -1.154760      0.054283
  C       3.741482     -0.137422      0.011019
  Br      5.453955     -0.640805     -0.016900
  N       2.549192      3.224612      0.004422
  O       1.527456      2.709592      0.091688
8
Coordinates from ORCA-job cu_his3_resting E -4545.377994121821
  Cu      0.679736      0.086060      0.072676
  N       2.699749      0.396698     -0.020186
  N       0.276187      1.686637     -0.480441
  N      -0.376228     -1.250958      0.128819
  C       3.652669     -0.144994      0.012244
  Br      5.390928     -0.718113     -0.070902
  N       2.576117      3.230477     -0.014642
  O       1.500843      3.014193      0.372432
8
Coordinates from ORCA-job cu_his3_resting E -4545.393386247542
  Cu      0.669395      0.124640      0.059768
  N       2.696605      0.419278     -0.031116
  N       0.220353      1.716215     -0.480552
  N      -0.372668     -1.201332      0.140082
  C       3.726263     -0.147137      0.011433
  Br      5.404603     -0.723484     -0.054313
  N       2.544441      3.199365     -0.022549
  O       1.511009      2.912456      0.377247
8
Coordinates from ORCA-job cu_his3_resting E -4545.397173600156
  Cu      0.688951      0.113100     -0.054881
  N       2.728319      0.396547     -0.059176
  N       0.134954      1.759447     -0.217541
  N      -0.342138     -1.194224      0.088453
  C       3.748036     -0.160664      0.029147
  Br      5.437293     -0.774453      0.002293
  N       2.531141      3.168909     -0.071471
  O       1.473444      2.991339      0.283176
8
Coordinates from ORCA-job cu_his3_resting E -4545.371554416513
  Cu      0.753308      0.134615     -0.173353
  N       2.825621      0.396558     -0.152037
  N      -0.277396      1.617255     -0.127682
  N      -0.144556     -1.179045      0.092547
  C       3.847820     -0.095169     -0.125642
  Br      5.336062     -0.982654      0.198339
  N       2.474488      3.024573     -0.171218
  O       1.584654      3.383867      0.459045
8
Coordinates from ORCA-job cu_his3_resting E -4545.391420928692
  Cu      0.721400      0.138586     -0.131154
  N       2.790259      0.401107     -0.141446
  N      -0.146096      1.689717     -0.152940
  N      -0.245941     -1.194978      0.095528
  C       3.840954     -0.095025     -0.102397
  Br      5.408715     -0.930473      0.167117
  N       2.506620      3.074048     -0.158506
  O       1.524089      3.217018      0.423798
8
Coordinates from ORCA-job cu_his3_resting E -4545.384751754136
  Cu      0.724151      0.168864     -0.103013
  N       2.788477      0.412103     -0.095713
  N      -0.080552      1.662745     -0.151052
  N      -0.268661     -1.176315      0.072085
  C       3.830419     -0.084881     -0.055722
  Br      5.339282     -0.858421      0.112436
  N       2.506553      3.088837     -0.134935
  O       1.560332      3.087069      0.355914
8
Coordinates from ORCA-job cu_his3_resting E -4545.399446598512
  Cu      0.711050      0.167096     -0.090461
  N       2.774789      0.414266     -0.073240
  N      -0.045624      1.716939     -0.099167
  N      -0.299486     -1.183532      0.034144
  C       3.823231     -0.092065     -0.028512
  Br      5.386939     -0.838294      0.095695
  N       2.545250      3.092209     -0.160586
  O       1.503851      3.023379      0.322127
8
Coordinates from ORCA-job cu_his3_resting E -4545.394445384117
  Cu      0.673279      0.134542     -0.018954
  N       2.751978      0.361451     -0.091025
  N      -0.100784      1.730536     -0.097730
  N      -0.380259     -1.144952     -0.009094
  C       3.824941     -0.107865     -0.072638
  Br      5.565192     -0.818956      0.129767
  N       2.543418      3.072016     -0.156155
  O       1.522235      3.073227      0.315830
8
Coordinates from ORCA-job cu_his3_resting E -4545.401934090573
  Cu      0.700953      0.147203     -0.022952
  N       2.772344      0.366938     -0.071389
  N      -0.030578      1.721876     -0.076500
  N      -0.354165     -1.140385     -0.021073
  C       3.840693     -0.096407     -0.031772
  Br      5.475152     -0.842552      0.095727
  N       2.516895      3.098593     -0.160334
  O       1.478706      3.044734      0.288294
8
Coordinates from ORCA-job cu_his3_resting E -4545.402544893694
  Cu      0.719835      0.154636     -0.063098
  N       2.792659      0.358998     -0.058506
  N      -0.024324      1.722475     -0.088146
  N      -0.347074     -1.130224      0.001810
  C       3.858113     -0.099621      0.016086
  Br      5.455562     -0.861245      0.056134
  N       2.497307      3.090116     -0.149746
  O       1.447924      3.064866      0.285465
8
Coordinates from ORCA-job cu_his3_resting E -4545.402525484878
  Cu      0.728775      0.160614     -0.058762
  N       2.804580      0.340591     -0.075942
  N       0.003416      1.742719     -0.000235
  N      -0.377805     -1.092567     -0.031030
  C       3.869541     -0.114724     -0.026626
  Br      5.476385     -0.837819      0.106541
  N       2.476518      3.074850     -0.158946
  O       1.418590      3.026336      0.245000
8
Coordinates from ORCA-job cu_his3_resting E -4545.403074784530
  Cu      0.724343      0.159509     -0.056730
  N       2.801901      0.315804     -0.084146
  N      -0.002149      1.720670      0.008988
  N      -0.406697     -1.068099     -0.036935
  C       3.884014     -0.107789     -0.051439
  Br      5.505622     -0.829284      0.131146
  N       2.470608      3.057866     -0.175825
  O       1.422358      3.051324      0.264941
8
Coordinates from ORCA-job cu_his3_resting E -4545.403454018103
  Cu      0.728161      0.159141     -0.045380
  N       2.806943      0.305933     -0.032668
  N      -0.026243      1.732165     -0.022129
  N      -0.423884     -1.048348     -0.053363
  C       3.889941     -0.114430      0.031581
  Br      5.541483     -0.820562      0.044477
  N       2.472451      3.026144     -0.163481
  O       1.411148      3.059956      0.240964
8
Coordinates from ORCA-job cu_his3_resting E -4545.403869193960
  Cu      0.740177      0.163769     -0.018328
  N       2.816981      0.290201     -0.004639
  N      -0.037942      1.737860     -0.011601
  N      -0.442837     -1.013215     -0.079355
  C       3.904036     -0.117999      0.007575
  Br      5.551145     -0.796366      0.046897
  N       2.467490      2.984233     -0.167320
  O       1.400951      3.051518      0.226772
8
Coordinates from ORCA-job cu_his3_resting E -4545.404330948198
  Cu      0.752549      0.164665      0.001268
  N       2.826159      0.261507      0.013573
  N      -0.022265      1.723607      0.041122
  N      -0.495550     -0.941230     -0.125748
  C       3.919589     -0.125681      0.020779
  Br      5.580881     -0.751090      0.040132
  N       2.453425      2.941658     -0.189318
  O       1.385211      3.026565      0.198193
8
Coordinates from ORCA-job cu_his3_resting E -4545.405132962694
  Cu      0.772427      0.155405      0.021841
  N       2.836047      0.209308      0.050372
  N      -0.022030      1.706889      0.085379
  N      -0.581054     -0.816493     -0.173431
  C       3.941754     -0.136995      0.032520
  Br      5.640453     -0.666255      0.024767
  N       2.441374      2.861144     -0.207524
  O       1.371027      2.986997      0.166075
8
Coordinates from ORCA-job cu_his3_resting E -4545.406690192914
  Cu      0.794087      0.137656      0.039125
  N       2.844234      0.152555      0.068319
  N      -0.023103      1.687423      0.102801
  N      -0.646640     -0.690037     -0.199014
  C       3.965508     -0.138098      0.041849
  Br      5.682881     -0.595127      0.015581
  N       2.426538      2.796525     -0.218479
  O       1.356494      2.949103      0.149818
8
Coordinates from ORCA-job cu_his3_resting E -4545.411985346668
  Cu      0.830021      0.116128      0.036893
  N       2.859474      0.065507      0.068321
  N      -0.032424      1.651907      0.132650
  N      -0.731264     -0.475509     -0.209330
  C       3.995266     -0.152549      0.041231
  Br      5.741947     -0.472009      0.029183
  N       2.401682      2.686082     -0.232711
  O       1.335298      2.880443      0.133763
8
Coordinates from ORCA-job cu_his3_resting E -4545.423771828684
  Cu      0.862888      0.094903      0.021670
  N       2.875264      0.018369      0.058789
  N      -0.058847      1.612520      0.131424
  N      -0.764163     -0.320467     -0.191411
  C       4.016105     -0.167228      0.042135
  Br      5.773302     -0.411816      0.041938
  N       2.378929      2.634628     -0.238511
  O       1.316523      2.839092      0.133966
8
Coordinates from ORCA-job cu_his3_resting E -4545.439278950327
  Cu      0.885753      0.082487      0.008940
  N       2.887439     -0.001543      0.052509
  N      -0.084841      1.578178      0.127601
  N      -0.770957     -0.218031     -0.174424
  C       4.030896     -0.175140      0.042348
  Br      5.791406     -0.391408      0.050296
  N       2.362113      2.614005     -0.240103
  O       1.298192      2.811452      0.132832
8
Coordinates from ORCA-job cu_his3_resting E -4545.456052217198
  Cu      0.901773      0.075948     -0.000697
  N       2.896852     -0.012736      0.047924
  N      -0.105892      1.550010      0.123895
  N      -0.769379     -0.143191     -0.160680
  C       4.041824     -0.180053      0.042301
  Br      5.803842     -0.382845      0.056295
  N       2.349008      2.601826     -0.240522
  O       1.281972      2.791041      0.131484
8
Coordinates from ORCA-job cu_his3_resting E -4545.478452157873
  Cu      0.917215      0.071116     -0.010598
  N       2.906411     -0.023118      0.043094
  N      -0.127383      1.520209      0.119904
  N      -0.763656     -0.067248     -0.146236
  C       4.052504     -0.184914      0.042117
  Br      5.815630     -0.376112      0.062463
  N       2.334873      2.589650     -0.240695
  O       1.264406      2.770417      0.129953
8
Coordinates from ORCA-job cu_his3_resting E -4545.506780077796
  Cu      0.932041      0.067682     -0.020711
  N       2.915888     -0.032883      0.038045
  N      -0.149084      1.489148      0.115607
  N      -0.754164      0.009350     -0.131183
  C       4.062872     -0.189771      0.041827
  Br      5.826840     -0.370827      0.068763
  N       2.319922      2.577444     -0.240673
  O       1.245685      2.749857      0.128324
8
Coordinates from ORCA-job cu_his3_resting E -4545.626825308558
  Cu      0.999002      0.093877     -0.049232
  N       2.954771     -0.071273      0.017124
  N      -0.249165      1.366547      0.100830
  N      -0.687246      0.293920     -0.080342
  C       4.103456     -0.216835      0.039378
  Br      5.868527     -0.364823      0.091950
  N       2.249963      2.524981     -0.241762
  O       1.160691      2.673606      0.122054
8
Coordinates from ORCA-job cu_his3_resting E -4545.653514204746
  Cu      1.012837      0.095898     -0.051506
  N       2.968265     -0.075383      0.019098
  N      -0.333747      1.365729      0.108733
  N      -0.697778      0.307867     -0.085081
  C       4.116498     -0.221561      0.044312
  Br      5.894880     -0.364865      0.087385
  N       2.266823      2.514921     -0.243982
  O       1.172222      2.677394      0.121040
8
Coordinates from ORCA-job cu_his3_resting E -4545.667016965408
  Cu      1.013366      0.084176     -0.049319
  N       2.970301     -0.075737      0.025367
  N      -0.373085      1.393154      0.117178
  N      -0.723042      0.266473     -0.097185
  C       4.119214     -0.225979      0.049176
  Br      5.908886     -0.362209      0.078984
  N       2.295577      2.526303     -0.245128
  O       1.188782      2.693819      0.120927
