8
Coordinates from ORCA-job cu_his3_resting E -4545.667016965408
  Cu          1.01336589239923      0.08417597402466     -0.04931894085062
  N           2.97030106637749     -0.07573673337180      0.02536684948404
  N          -0.37308481697063      1.39315394897218      0.11717844164521
  N          -0.72304154959415      0.26647324042487     -0.09718537502389
  C           4.11921447498609     -0.22597932903175      0.04917618930524
  Br          5.90888573119809     -0.36220894758401      0.07898393487140
  N           2.29557715307376      2.52630328301809     -0.24512789547675
  O           1.18878204853011      2.69381856354772      0.12092679604537
