8
Coordinates from ORCA-job /home/mrnob0dy666/imscribing_grammar/cu_set_step E -4545.637631444210
  Cu      0.000000      0.000000      0.000000
  N       2.050000      0.000000      0.000000
  N      -1.025000      1.776000      0.000000
  N      -1.025000     -1.776000      0.000000
  C       4.500000      0.000000      0.000000
  Br      5.900000      0.000000      0.000000
  N       3.000000      2.500000      0.000000
  O       3.000000      3.800000      0.000000
8
Coordinates from ORCA-job /home/mrnob0dy666/imscribing_grammar/cu_set_step E -4545.752874718890
  Cu     -0.003841      0.014300     -0.000000
  N       2.027785     -0.001480     -0.000000
  N      -1.008844      1.782030      0.000001
  N      -1.023686     -1.743476     -0.000000
  C       4.487032      0.039504      0.000001
  Br      6.001033     -0.032400      0.000000
  N       2.965936      2.519385     -0.000000
  O       2.954585      3.722138     -0.000000
8
Coordinates from ORCA-job /home/mrnob0dy666/imscribing_grammar/cu_set_step E -4545.803897591409
  Cu      0.009024      0.028271      0.000001
  N       2.008493     -0.000007      0.000003
  N      -0.973423      1.773399     -0.000004
  N      -0.989532     -1.704896      0.000000
  C       4.467285      0.106476      0.000002
  Br      6.061743     -0.122496     -0.000005
  N       2.921810      2.555532      0.000002
  O       2.894600      3.663721      0.000001
8
Coordinates from ORCA-job /home/mrnob0dy666/imscribing_grammar/cu_set_step E -4545.833169542600
  Cu      0.037837      0.016400     -0.000000
  N       1.985872     -0.030625      0.000000
  N      -0.904075      1.725374     -0.000008
  N      -0.932150     -1.674826      0.000003
  C       4.440539      0.239458      0.000011
  Br      6.046372     -0.315839     -0.000013
  N       2.888783      2.620575      0.000005
  O       2.836822      3.719482      0.000002
8
Coordinates from ORCA-job /home/mrnob0dy666/imscribing_grammar/cu_set_step E -4545.860203586846
  Cu      0.150804     -0.006632     -0.000002
  N       2.021238     -0.023829     -0.000025
  N      -0.779806      1.611667      0.000010
  N      -0.724437     -1.660512      0.000003
  C       4.327971      0.425821      0.000018
  Br      5.766541     -0.657322     -0.000003
  N       2.854232      2.749953      0.000000
  O       2.783457      3.860853     -0.000001
8
Coordinates from ORCA-job /home/mrnob0dy666/imscribing_grammar/cu_set_step E -4545.833981775564
  Cu      0.555310     -0.041188     -0.000003
  N       2.153053     -0.018311     -0.000044
  N      -0.271118      1.262291     -0.000001
  N      -0.058202     -1.510755      0.000020
  C       3.890062      0.698627      0.000001
  Br      4.739234     -1.249418      0.000008
  N       2.722866      2.989443      0.000007
  O       2.668795      4.169310      0.000012
8
Coordinates from ORCA-job /home/mrnob0dy666/imscribing_grammar/cu_set_step E -4545.920912713945
  Cu      0.546130     -0.045787     -0.000233
  N       2.257903      0.014260     -0.001331
  N      -0.377042      1.341401      0.002028
  N      -0.106123     -1.622228     -0.000970
  C       3.904333      0.699431     -0.002658
  Br      4.739205     -1.228554      0.002563
  N       2.740784      3.001772      0.001258
  O       2.694808      4.139706     -0.000656
8
Coordinates from ORCA-job /home/mrnob0dy666/imscribing_grammar/cu_set_step E -4545.974359476025
  Cu      0.591066     -0.048124     -0.000231
  N       2.363623      0.046720     -0.001431
  N      -0.401023      1.368498      0.001880
  N      -0.083498     -1.680222     -0.000727
  C       3.852614      0.691194     -0.002814
  Br      4.632419     -1.224603      0.002569
  N       2.735938      3.024948      0.001062
  O       2.708861      4.121589     -0.000308
8
Coordinates from ORCA-job /home/mrnob0dy666/imscribing_grammar/cu_set_step E -4546.034005121834
  Cu      0.640998     -0.049679     -0.000285
  N       2.491073      0.088488     -0.001993
  N      -0.446134      1.399929      0.001857
  N      -0.073671     -1.750553     -0.000332
  C       3.813518      0.683472     -0.003749
  Br      4.515943     -1.213331      0.003252
  N       2.731880      3.044969      0.000798
  O       2.726393      4.096704      0.000452
8
Coordinates from ORCA-job /home/mrnob0dy666/imscribing_grammar/cu_set_step E -4546.076082881094
  Cu      0.693320     -0.047421     -0.000259
  N       2.580081      0.124680     -0.001961
  N      -0.451172      1.408919      0.001652
  N      -0.030084     -1.786137     -0.000098
  C       3.748651      0.661159     -0.003531
  Br      4.404381     -1.228687      0.002968
  N       2.724828      3.060153      0.000522
  O       2.729997      4.107334      0.000707
8
Coordinates from ORCA-job /home/mrnob0dy666/imscribing_grammar/cu_set_step E -4545.752124845956
  Cu      0.835213     -0.041275      0.000254
  N       2.732497      0.076600      0.001044
  N      -0.351907      1.364900     -0.000135
  N      -0.007325     -1.719791      0.000065
  C       3.592783      0.454323      0.001198
  Br      4.277490     -1.277254     -0.002039
  N       2.669160      2.962884     -0.000051
  O       2.652088      4.479613     -0.000335
8
Coordinates from ORCA-job /home/mrnob0dy666/imscribing_grammar/cu_set_step E -4545.876398203375
  Cu      0.835841     -0.036775      0.000252
  N       2.700670      0.066298      0.001028
  N      -0.351618      1.368127     -0.000133
  N      -0.009247     -1.713129      0.000065
  C       3.631657      0.473175      0.001192
  Br      4.278950     -1.276692     -0.002026
  N       2.669951      2.962684     -0.000049
  O       2.643796      4.456312     -0.000328
8
Coordinates from ORCA-job /home/mrnob0dy666/imscribing_grammar/cu_set_step E -4545.951294775198
  Cu      0.834183     -0.026017      0.000249
  N       2.680010      0.068085      0.001012
  N      -0.355695      1.379324     -0.000136
  N      -0.011425     -1.702372      0.000074
  C       3.658961      0.494950      0.001177
  Br      4.293586     -1.278722     -0.002021
  N       2.666270      2.972074     -0.000038
  O       2.634109      4.392679     -0.000316
8
Coordinates from ORCA-job /home/mrnob0dy666/imscribing_grammar/cu_set_step E -4546.035233154042
  Cu      0.830711     -0.008518      0.000244
  N       2.659538      0.077222      0.000988
  N      -0.362688      1.397789     -0.000140
  N      -0.015034     -1.685272      0.000088
  C       3.687663      0.526164      0.001147
  Br      4.316604     -1.270877     -0.002008
  N       2.659575      2.989489     -0.000026
  O       2.623633      4.274003     -0.000294
8
Coordinates from ORCA-job /home/mrnob0dy666/imscribing_grammar/cu_set_step E -4546.090689240914
  Cu      0.818249      0.014450      0.000233
  N       2.641076      0.090345      0.000937
  N      -0.378870      1.425264     -0.000149
  N      -0.023269     -1.664585      0.000128
  C       3.716069      0.560390      0.001065
  Br      4.367215     -1.273771     -0.001973
  N       2.647445      3.011099      0.000029
  O       2.612085      4.136807     -0.000269
8
Coordinates from ORCA-job /home/mrnob0dy666/imscribing_grammar/cu_set_step E -4546.102400568633
  Cu      0.795024      0.051275      0.000379
  N       2.662285      0.176037      0.001160
  N      -0.448906      1.448800     -0.000163
  N      -0.013829     -1.659860     -0.000052
  C       3.772176      0.512940      0.001458
  Br      4.443906     -1.411134     -0.002404
  N       2.619147      3.045224      0.000195
  O       2.570197      4.136717     -0.000574
8
Coordinates from ORCA-job /home/mrnob0dy666/imscribing_grammar/cu_set_step E -4546.135194904609
  Cu      0.662855      0.207685      0.000839
  N       2.636715      0.235561      0.001519
  N      -0.600415      1.516012      0.000537
  N      -0.245913     -1.406091     -0.000652
  C       3.895656      0.095691      0.001985
  Br      5.045213     -1.239763     -0.002759
  N       2.543398      2.926484     -0.000363
  O       2.462492      3.964421     -0.001107
8
Coordinates from ORCA-job /home/mrnob0dy666/imscribing_grammar/cu_set_step E -4546.161455178079
  Cu      0.668212      0.217164      0.000725
  N       2.653058      0.228766      0.001305
  N      -0.616857      1.520842      0.000374
  N      -0.232677     -1.408080     -0.000354
  C       3.874747      0.067615      0.001705
  Br      5.094906     -1.319937     -0.002605
  N       2.528841      2.932020     -0.000121
  O       2.429769      4.061610     -0.001030
8
Coordinates from ORCA-job /home/mrnob0dy666/imscribing_grammar/cu_set_step E -4546.175667881807
  Cu      0.662631      0.232939      0.000789
  N       2.635488      0.180935      0.001009
  N      -0.596743      1.544245      0.000527
  N      -0.239857     -1.367750     -0.000310
  C       3.829728     -0.008469      0.001178
  Br      5.164893     -1.239343     -0.002140
  N       2.523942      2.911395      0.000093
  O       2.419918      4.046049     -0.001146
8
Coordinates from ORCA-job /home/mrnob0dy666/imscribing_grammar/cu_set_step E -4546.194122791134
  Cu      0.667554      0.260036      0.000919
  N       2.621945      0.098257      0.000835
  N      -0.593800      1.584897      0.000889
  N      -0.258014     -1.311969     -0.000472
  C       3.754397     -0.124559      0.000792
  Br      5.259654     -1.084688     -0.001708
  N       2.531445      2.874485      0.000009
  O       2.416819      4.003541     -0.001265
8
Coordinates from ORCA-job /home/mrnob0dy666/imscribing_grammar/cu_set_step E -4546.188998165126
  Cu      0.651993      0.380205      0.001352
  N       2.654294     -0.047568     -0.000242
  N      -0.686341      1.617044      0.002635
  N      -0.507319     -1.047241     -0.000931
  C       3.776435     -0.461652     -0.001399
  Br      5.679607     -0.795735      0.000771
  N       2.507488      2.783294     -0.001066
  O       2.323844      3.871654     -0.001120
8
Coordinates from ORCA-job /home/mrnob0dy666/imscribing_grammar/cu_set_step E -4546.206251116121
  Cu      0.730974      0.385659      0.002341
  N       2.682894     -0.083767     -0.001648
  N      -0.658697      1.640571      0.006580
  N      -0.442642     -1.067532     -0.002758
  C       3.772509     -0.484684     -0.005253
  Br      5.537092     -0.800113      0.005177
  N       2.500075      2.807992     -0.002700
  O       2.277793      3.901873     -0.001739
8
Coordinates from ORCA-job /home/mrnob0dy666/imscribing_grammar/cu_set_step E -4546.208918735493
  Cu      0.784827      0.408602      0.001885
  N       2.697389     -0.119259     -0.003430
  N      -0.595201      1.663171      0.008380
  N      -0.428400     -1.018798     -0.002523
  C       3.776696     -0.503865     -0.007773
  Br      5.506003     -0.803656      0.008370
  N       2.462391      2.792583     -0.003408
  O       2.196295      3.881222     -0.001501
8
Coordinates from ORCA-job /home/mrnob0dy666/imscribing_grammar/cu_set_step E -4546.211733008839
  Cu      1.096188      0.636698     -0.006519
  N       2.827149     -0.219366     -0.015578
  N      -0.215747      1.809380      0.007797
  N      -0.376072     -0.558976      0.009016
  C       3.890628     -0.617868     -0.016468
  Br      5.569037     -1.073442      0.021019
  N       2.097548      2.666414     -0.001229
  O       1.511270      3.657159      0.001961
8
Coordinates from ORCA-job /home/mrnob0dy666/imscribing_grammar/cu_set_step E -4546.218962146901
  Cu      1.088266      0.620648     -0.007363
  N       2.822894     -0.219350     -0.010260
  N      -0.315655      1.751323      0.000059
  N      -0.372165     -0.596281      0.010625
  C       3.911048     -0.611847     -0.008625
  Br      5.577536     -1.118367      0.011518
  N       2.125805      2.740903      0.001336
  O       1.562270      3.732972      0.002711
8
Coordinates from ORCA-job /home/mrnob0dy666/imscribing_grammar/cu_set_step E -4546.260312506888
  Cu      1.150048      0.602430      0.007474
  N       2.926524     -0.260673      0.105660
  N      -0.755611      1.256448     -0.092012
  N      -0.608855     -0.255208     -0.017146
  C       3.968863     -0.463837      0.142305
  Br      5.747256     -1.250764     -0.171873
  N       2.202279      2.894718      0.027565
  O       1.769497      3.776885     -0.001973
8
Coordinates from ORCA-job /home/mrnob0dy666/imscribing_grammar/cu_set_step E -4546.447941076342
  Cu      1.168059      0.528838      0.012660
  N       2.955161     -0.299666      0.103527
  N      -0.724920      1.088633     -0.076956
  N      -0.727556      0.102443     -0.030386
  C       4.057616     -0.501348      0.138593
  Br      5.820793     -1.241128     -0.166019
  N       2.181279      2.828767      0.025412
  O       1.669568      3.793460     -0.006832
8
Coordinates from ORCA-job /home/mrnob0dy666/imscribing_grammar/cu_set_step E -4546.431692993121
  Cu      1.150442      0.575984      0.007780
  N       2.918244     -0.281366      0.098141
  N      -0.732236      1.189851     -0.082848
  N      -0.663426     -0.147215     -0.020987
  C       4.048529     -0.512138      0.135288
  Br      5.776340     -1.270214     -0.160988
  N       2.214681      2.853868      0.027999
  O       1.687426      3.891230     -0.004385
8
Coordinates from ORCA-job /home/mrnob0dy666/imscribing_grammar/cu_set_step E -4546.450108021136
  Cu      1.250127      0.563160      0.000251
  N       2.925322     -0.291189      0.045680
  N      -0.632279      1.088246     -0.049166
  N      -0.628559      0.104758     -0.008746
  C       4.078828     -0.591256      0.063297
  Br      5.616573     -1.140250     -0.070993
  N       2.173855      2.797437      0.015965
  O       1.616133      3.769094      0.003712
8
Coordinates from ORCA-job /home/mrnob0dy666/imscribing_grammar/cu_set_step E -4546.508624012415
  Cu      1.249655      0.568825     -0.000383
  N       2.923045     -0.290518      0.044096
  N      -0.632452      1.125670     -0.049351
  N      -0.625479      0.048391     -0.006597
  C       4.059520     -0.589516      0.060949
  Br      5.628890     -1.146616     -0.068465
  N       2.174896      2.802172      0.015496
  O       1.621926      3.781592      0.004255
8
Coordinates from ORCA-job /home/mrnob0dy666/imscribing_grammar/cu_set_step E -4546.520365415462
  Cu      1.249302      0.577990     -0.000300
  N       2.931239     -0.305734      0.041579
  N      -0.663067      1.141768     -0.047277
  N      -0.668530      0.049198     -0.005305
  C       4.044390     -0.594180      0.055268
  Br      5.704725     -1.155879     -0.063171
  N       2.186860      2.802690      0.014982
  O       1.615081      3.784148      0.004223
8
Coordinates from ORCA-job /home/mrnob0dy666/imscribing_grammar/cu_set_step E -4546.524343769713
  Cu      1.277585      0.601809      0.001660
  N       2.935568     -0.331761      0.054389
  N      -0.705793      1.144470     -0.047199
  N      -0.727746      0.036904     -0.007899
  C       4.040205     -0.629576      0.018662
  Br      5.709160     -1.158194     -0.060656
  N       2.164311      2.798169      0.012265
  O       1.588929      3.762811      0.004725
8
Coordinates from ORCA-job /home/mrnob0dy666/imscribing_grammar/cu_set_step E -4546.525261484414
  Cu      1.283364      0.610555      0.004051
  N       2.941530     -0.324085      0.051942
  N      -0.707316      1.146284     -0.043623
  N      -0.729280      0.039886     -0.011171
  C       4.048803     -0.636356      0.017618
  Br      5.721608     -1.183153     -0.058971
  N       2.153914      2.799803      0.012070
  O       1.569595      3.771699      0.004031
8
Coordinates from ORCA-job /home/mrnob0dy666/imscribing_grammar/cu_set_step E -4546.525924080106
  Cu      1.297494      0.628176      0.007438
  N       2.956343     -0.307618      0.047194
  N      -0.707638      1.149114     -0.037873
  N      -0.728566      0.043681     -0.015953
  C       4.059392     -0.644621      0.015667
  Br      5.731605     -1.223785     -0.055341
  N       2.134558      2.803679      0.011068
  O       1.539031      3.776006      0.003748
8
Coordinates from ORCA-job /home/mrnob0dy666/imscribing_grammar/cu_set_step E -4546.527003626885
  Cu      1.334714      0.671989      0.012597
  N       2.995129     -0.266289      0.036275
  N      -0.705034      1.153874     -0.027059
  N      -0.722086      0.049970     -0.023738
  C       4.080906     -0.661021      0.010955
  Br      5.739685     -1.315746     -0.046483
  N       2.089025      2.813823      0.009625
  O       1.469880      3.778030      0.003776
8
Coordinates from ORCA-job /home/mrnob0dy666/imscribing_grammar/cu_set_step E -4546.528195603554
  Cu      1.384684      0.728418      0.013021
  N       3.046492     -0.213698      0.022650
  N      -0.697555      1.155114     -0.018540
  N      -0.707870      0.052530     -0.026413
  C       4.103271     -0.678473      0.005085
  Br      5.730460     -1.424281     -0.034339
  N       2.034431      2.829164      0.007640
  O       1.388305      3.775857      0.006844
8
Coordinates from ORCA-job /home/mrnob0dy666/imscribing_grammar/cu_set_step E -4546.529238309549
  Cu      1.412247      0.755829      0.015586
  N       3.078210     -0.183619      0.013453
  N      -0.703750      1.131757     -0.014637
  N      -0.705744      0.029209     -0.033705
  C       4.115160     -0.678491      0.002770
  Br      5.722207     -1.440398     -0.033736
  N       1.984531      2.828457      0.010472
  O       1.330594      3.762633      0.003917
8
Coordinates from ORCA-job /home/mrnob0dy666/imscribing_grammar/cu_set_step E -4546.529432810143
  Cu      1.417904      0.761739      0.005463
  N       3.081868     -0.182003      0.008570
  N      -0.701743      1.127130     -0.015129
  N      -0.701949      0.024411     -0.026911
  C       4.117808     -0.681830      0.001606
  Br      5.715779     -1.450360     -0.027666
  N       1.979132      2.838236      0.008797
  O       1.324655      3.768055      0.009391
8
Coordinates from ORCA-job /home/mrnob0dy666/imscribing_grammar/cu_set_step E -4546.529793636166
  Cu      1.439099      0.783155     -0.018193
  N       3.095017     -0.176677     -0.003221
  N      -0.692999      1.109809     -0.015787
  N      -0.686813      0.007178     -0.011344
  C       4.124408     -0.693886     -0.001537
  Br      5.695413     -1.489241     -0.012863
  N       1.959853      2.872537      0.003858
  O       1.299477      3.792503      0.023206
8
Coordinates from ORCA-job /home/mrnob0dy666/imscribing_grammar/cu_set_step E -4546.530152954341
  Cu      1.467055      0.811997     -0.034191
  N       3.111195     -0.169595     -0.011826
  N      -0.679876      1.087780     -0.015580
  N      -0.666007     -0.014252     -0.000967
  C       4.129880     -0.709356     -0.004402
  Br      5.673006     -1.542262     -0.001856
  N       1.934494      2.915529     -0.001034
  O       1.263706      3.825537      0.033976
8
Coordinates from ORCA-job /home/mrnob0dy666/imscribing_grammar/cu_set_step E -4546.532441514744
  Cu      1.726394      1.089325     -0.085532
  N       3.227230     -0.113228     -0.040254
  N      -0.508839      0.901975     -0.009345
  N      -0.444622     -0.193209      0.031376
  C       4.110485     -0.864321     -0.016319
  Br      5.466347     -1.953131      0.034778
  N       1.711862      3.255487     -0.020991
  O       0.944597      4.082478      0.070408
8
Coordinates from ORCA-job /home/mrnob0dy666/imscribing_grammar/cu_set_step E -4546.533254079224
  Cu      1.749270      1.114106     -0.072583
  N       3.233466     -0.106398     -0.033918
  N      -0.489192      0.892637     -0.011479
  N      -0.426454     -0.201943      0.028912
  C       4.103084     -0.865703     -0.013379
  Br      5.446739     -1.983295      0.025280
  N       1.698184      3.270563     -0.022837
  O       0.918357      4.085410      0.064123
8
Coordinates from ORCA-job /home/mrnob0dy666/imscribing_grammar/cu_set_step E -4546.533736982075
  Cu      1.835095      1.214144     -0.032720
  N       3.227771     -0.072798     -0.017356
  N      -0.410363      0.914380     -0.016359
  N      -0.395236     -0.179642      0.022660
  C       4.065467     -0.827789     -0.008109
  Br      5.408247     -2.070043      0.000566
  N       1.688261      3.246902     -0.028952
  O       0.814212      3.980223      0.044391
8
Coordinates from ORCA-job /home/mrnob0dy666/imscribing_grammar/cu_set_step E -4546.535881816008
  Cu      1.834859      1.219194     -0.031034
  N       3.223490     -0.083421     -0.019563
  N      -0.418745      0.899738     -0.014161
  N      -0.400316     -0.193394      0.021170
  C       4.062006     -0.866515     -0.017980
  Br      5.427446     -2.050966      0.009166
  N       1.677347      3.265792     -0.026132
  O       0.827367      4.014948      0.042652
8
Coordinates from ORCA-job /home/mrnob0dy666/imscribing_grammar/cu_set_step E -4546.536777482904
  Cu      1.844191      1.228173     -0.025465
  N       3.210439     -0.103075     -0.012224
  N      -0.410434      0.897943     -0.017737
  N      -0.405815     -0.196151      0.021277
  C       4.043842     -0.892801     -0.011546
  Br      5.433634     -2.002554     -0.002347
  N       1.681492      3.259208     -0.027919
  O       0.836105      4.014635      0.040082
8
Coordinates from ORCA-job /home/mrnob0dy666/imscribing_grammar/cu_set_step E -4546.537974928950
  Cu      1.885962      1.279216     -0.021845
  N       3.223128     -0.085754     -0.009127
  N      -0.373339      0.876873     -0.019725
  N      -0.373918     -0.217424      0.021882
  C       4.044982     -0.893698     -0.008004
  Br      5.373802     -2.059363     -0.008235
  N       1.659057      3.282988     -0.030257
  O       0.793781      4.022540      0.039431
8
Coordinates from ORCA-job /home/mrnob0dy666/imscribing_grammar/cu_set_step E -4546.539458374321
  Cu      1.936901      1.347925     -0.007705
  N       3.227947     -0.058785      0.002143
  N      -0.321364      0.849334     -0.021079
  N      -0.338564     -0.244617      0.018888
  C       4.036549     -0.881150      0.004450
  Br      5.289312     -2.105174     -0.030652
  N       1.641046      3.288507     -0.028567
  O       0.761626      4.009337      0.026642
8
Coordinates from ORCA-job /home/mrnob0dy666/imscribing_grammar/cu_set_step E -4546.540810456461
  Cu      2.002239      1.428884     -0.006076
  N       3.246258     -0.021742      0.004189
  N      -0.252987      0.808704     -0.022154
  N      -0.274178     -0.284178      0.019589
  C       4.025443     -0.872733      0.010465
  Br      5.180463     -2.196290     -0.037337
  N       1.606183      3.325958     -0.030411
  O       0.700032      4.016775      0.025855
8
Coordinates from ORCA-job /home/mrnob0dy666/imscribing_grammar/cu_set_step E -4546.542289031006
  Cu      2.096278      1.546044     -0.006718
  N       3.261110      0.034288      0.005341
  N      -0.141965      0.742945     -0.021740
  N      -0.175339     -0.348082      0.020570
  C       3.986085     -0.859255      0.020236
  Br      5.015324     -2.298652     -0.046471
  N       1.564236      3.370626     -0.030114
  O       0.627726      4.017463      0.023017
8
Coordinates from ORCA-job /home/mrnob0dy666/imscribing_grammar/cu_set_step E -4546.542988846341
  Cu      2.233816      1.712337     -0.010787
  N       3.268747      0.097945      0.003258
  N       0.038553      0.635071     -0.022669
  N      -0.005361     -0.454064      0.025424
  C       3.904646     -0.865027      0.023472
  Br      4.760684     -2.401580     -0.047221
  N       1.502219      3.442844     -0.033295
  O       0.530151      4.037851      0.025939
