8
Coordinates from ORCA-job /home/mrnob0dy666/imscribing_grammar/cu_set_step E -4546.542988846341
  Cu          2.23381578238726      1.71233722359125     -0.01078693857062
  N           3.26874715703609      0.09794463173354      0.00325837909855
  N           0.03855301066595      0.63507058987459     -0.02266932693288
  N          -0.00536064515028     -0.45406372414545      0.02542388268673
  C           3.90464552687765     -0.86502672362871      0.02347172006057
  Br          4.76068383426338     -2.40157959305604     -0.04722117988421
  N           1.50221896853069      3.44284406659208     -0.03329491620087
  O           0.53015102467950      4.03785074462242      0.02593873685112
